# Copper Deep Potential Melt

variable	x index 1
variable	y index 1
variable	z index 1

variable        xx equal 20*5
variable        yy equal 20*5
variable        zz equal 20*5

units           metal
dimension       3
boundary        p p p
atom_style      atomic

variable latparam equal 3.61
variable material string Cu

lattice		fcc ${latparam}
region		box block 0 ${xx} 0 ${yy} 0 ${zz}
create_box	1 box
create_atoms	1 random 100000 123456 box
mass		1 63.546

reset_timestep  0
timestep 0.005
velocity	all create 300 87287 loop geom

#pair_style deepmd copper_single_gpu_graph-compress.pb
pair_style meam
pair_coeff * * library.meam ${material} ${material}.meam ${material}


neighbor	0.3 bin
neigh_modify	delay 0 every 20 check no

fix		1 all nve

# Set thermo output
thermo 100
thermo_style custom step lx ly lz press pxx pyy pzz pe temp

run		10000
